\* Simple_Problem *\
Minimize
OBJ: x0 + x1 + x2 + x3 + x4 + x5
Subject To
_C1: x4 + x5 = 3
_C2: x1 + x5 = 5
_C3: x2 + x3 + x4 = 4
_C4: x0 + x1 + x3 = 7
Bounds
 0 <= x0
 0 <= x1
 0 <= x2
 0 <= x3
 0 <= x4
 0 <= x5
Generals
x0
x1
x2
x3
x4
x5
End
